n = 21;
k = 3;
roles = [
{g, m},
{f, g},
{g, f},
{g, d},
{g, d},
{g, f},
{d, g},
{m, g},
{m, d},
{m, f},
{f, m},
{m, d},
{d, g},
{m, f},
{g, f},
{g, m},
{f, g},
{g, m},
{m, f},
{m, d},
{d, m}
];
num_pairs = 2;
player1 = [18, 21];
player2 = [17, 1];
